c nIsolatedPIs 128
c maxPI 128
p cnf 451 970
c gate 129 -56 -120 0
-56 -129 0
-120 -129 0
56 120 129 0
c gate 130 56 120 0
56 -130 0
120 -130 0
-56 -120 130 0
c gate 131 55 119 0
55 -131 0
119 -131 0
-55 -119 131 0
c gate 132 -130 -131 0
-130 -132 0
-131 -132 0
130 131 132 0
c gate 133 -55 -119 0
-55 -133 0
-119 -133 0
55 119 133 0
c gate 134 -54 -118 0
-54 -134 0
-118 -134 0
54 118 134 0
c gate 135 -133 -134 0
-133 -135 0
-134 -135 0
133 134 135 0
c gate 136 54 118 0
54 -136 0
118 -136 0
-54 -118 136 0
c gate 137 53 117 0
53 -137 0
117 -137 0
-53 -117 137 0
c gate 138 -136 -137 0
-136 -138 0
-137 -138 0
136 137 138 0
c gate 139 -53 -117 0
-53 -139 0
-117 -139 0
53 117 139 0
c gate 140 49 113 0
49 -140 0
113 -140 0
-49 -113 140 0
c gate 141 50 114 0
50 -141 0
114 -141 0
-50 -114 141 0
c gate 142 -140 -141 0
-140 -142 0
-141 -142 0
140 141 142 0
c gate 143 -51 -115 0
-51 -143 0
-115 -143 0
51 115 143 0
c gate 144 -50 -114 0
-50 -144 0
-114 -144 0
50 114 144 0
c gate 145 -52 -116 0
-52 -145 0
-116 -145 0
52 116 145 0
c gate 146 -144 -145 0
-144 -146 0
-145 -146 0
144 145 146 0
c gate 147 -143 146 0
-143 -147 0
146 -147 0
143 -146 147 0
c gate 148 -142 147 0
-142 -148 0
147 -148 0
142 -147 148 0
c gate 149 52 116 0
52 -149 0
116 -149 0
-52 -116 149 0
c gate 150 51 115 0
51 -150 0
115 -150 0
-51 -115 150 0
c gate 151 -145 150 0
-145 -151 0
150 -151 0
145 -150 151 0
c gate 152 -149 -151 0
-149 -152 0
-151 -152 0
149 151 152 0
c gate 153 -148 152 0
-148 -153 0
152 -153 0
148 -152 153 0
c gate 154 -139 -153 0
-139 -154 0
-153 -154 0
139 153 154 0
c gate 155 138 -154 0
138 -155 0
-154 -155 0
-138 154 155 0
c gate 156 135 -155 0
135 -156 0
-155 -156 0
-135 155 156 0
c gate 157 132 -156 0
132 -157 0
-156 -157 0
-132 156 157 0
c gate 158 -129 -157 0
-129 -158 0
-157 -158 0
129 157 158 0
c gate 159 132 135 0
132 -159 0
135 -159 0
-132 -135 159 0
c gate 160 138 142 0
138 -160 0
142 -160 0
-138 -142 160 0
c gate 161 159 160 0
159 -161 0
160 -161 0
-159 -160 161 0
c gate 162 -49 -113 0
-49 -162 0
-113 -162 0
49 113 162 0
c gate 163 -129 -139 0
-129 -163 0
-139 -163 0
129 139 163 0
c gate 164 -162 163 0
-162 -164 0
163 -164 0
162 -163 164 0
c gate 165 147 164 0
147 -165 0
164 -165 0
-147 -164 165 0
c gate 166 152 165 0
152 -166 0
165 -166 0
-152 -165 166 0
c gate 167 161 166 0
161 -167 0
166 -167 0
-161 -166 167 0
c gate 168 -40 -104 0
-40 -168 0
-104 -168 0
40 104 168 0
c gate 169 38 102 0
38 -169 0
102 -169 0
-38 -102 169 0
c gate 170 37 101 0
37 -170 0
101 -170 0
-37 -101 170 0
c gate 171 -169 -170 0
-169 -171 0
-170 -171 0
169 170 171 0
c gate 172 -39 -103 0
-39 -172 0
-103 -172 0
39 103 172 0
c gate 173 -38 -102 0
-38 -173 0
-102 -173 0
38 102 173 0
c gate 174 -172 -173 0
-172 -174 0
-173 -174 0
172 173 174 0
c gate 175 -171 174 0
-171 -175 0
174 -175 0
171 -174 175 0
c gate 176 39 103 0
39 -176 0
103 -176 0
-39 -103 176 0
c gate 177 40 104 0
40 -177 0
104 -177 0
-40 -104 177 0
c gate 178 -176 -177 0
-176 -178 0
-177 -178 0
176 177 178 0
c gate 179 -175 178 0
-175 -179 0
178 -179 0
175 -178 179 0
c gate 180 -168 -179 0
-168 -180 0
-179 -180 0
168 179 180 0
c gate 181 -37 -101 0
-37 -181 0
-101 -181 0
37 101 181 0
c gate 182 -168 -181 0
-168 -182 0
-181 -182 0
168 181 182 0
c gate 183 174 182 0
174 -183 0
182 -183 0
-174 -182 183 0
c gate 184 179 183 0
179 -184 0
183 -184 0
-179 -183 184 0
c gate 185 36 100 0
36 -185 0
100 -185 0
-36 -100 185 0
c gate 186 -36 -100 0
-36 -186 0
-100 -186 0
36 100 186 0
c gate 187 35 99 0
35 -187 0
99 -187 0
-35 -99 187 0
c gate 188 -186 187 0
-186 -188 0
187 -188 0
186 -187 188 0
c gate 189 -185 -188 0
-185 -189 0
-188 -189 0
185 188 189 0
c gate 190 -35 -99 0
-35 -190 0
-99 -190 0
35 99 190 0
c gate 191 -186 -190 0
-186 -191 0
-190 -191 0
186 190 191 0
c gate 192 189 191 0
189 -192 0
191 -192 0
-189 -191 192 0
c gate 193 34 98 0
34 -193 0
98 -193 0
-34 -98 193 0
c gate 194 33 97 0
33 -194 0
97 -194 0
-33 -97 194 0
c gate 195 -193 -194 0
-193 -195 0
-194 -195 0
193 194 195 0
c gate 196 -34 -98 0
-34 -196 0
-98 -196 0
34 98 196 0
c gate 197 -195 -196 0
-195 -197 0
-196 -197 0
195 196 197 0
c gate 198 192 197 0
192 -198 0
197 -198 0
-192 -197 198 0
c gate 199 189 -198 0
189 -199 0
-198 -199 0
-189 198 199 0
c gate 200 184 -199 0
184 -200 0
-199 -200 0
-184 199 200 0
c gate 201 -180 -200 0
-180 -201 0
-200 -201 0
180 200 201 0
c gate 202 -33 -97 0
-33 -202 0
-97 -202 0
33 97 202 0
c gate 203 -196 -202 0
-196 -203 0
-202 -203 0
196 202 203 0
c gate 204 195 203 0
195 -204 0
203 -204 0
-195 -203 204 0
c gate 205 192 204 0
192 -205 0
204 -205 0
-192 -204 205 0
c gate 206 184 205 0
184 -206 0
205 -206 0
-184 -205 206 0
c gate 207 -32 -96 0
-32 -207 0
-96 -207 0
32 96 207 0
c gate 208 32 96 0
32 -208 0
96 -208 0
-32 -96 208 0
c gate 209 31 95 0
31 -209 0
95 -209 0
-31 -95 209 0
c gate 210 -208 -209 0
-208 -210 0
-209 -210 0
208 209 210 0
c gate 211 -31 -95 0
-31 -211 0
-95 -211 0
31 95 211 0
c gate 212 -30 -94 0
-30 -212 0
-94 -212 0
30 94 212 0
c gate 213 -211 -212 0
-211 -213 0
-212 -213 0
211 212 213 0
c gate 214 30 94 0
30 -214 0
94 -214 0
-30 -94 214 0
c gate 215 29 93 0
29 -215 0
93 -215 0
-29 -93 215 0
c gate 216 -214 -215 0
-214 -216 0
-215 -216 0
214 215 216 0
c gate 217 -29 -93 0
-29 -217 0
-93 -217 0
29 93 217 0
c gate 218 28 92 0
28 -218 0
92 -218 0
-28 -92 218 0
c gate 219 -28 -92 0
-28 -219 0
-92 -219 0
28 92 219 0
c gate 220 27 -219 0
27 -220 0
-219 -220 0
-27 219 220 0
c gate 221 91 220 0
91 -221 0
220 -221 0
-91 -220 221 0
c gate 222 -218 -221 0
-218 -222 0
-221 -222 0
218 221 222 0
c gate 223 91 -219 0
91 -223 0
-219 -223 0
-91 219 223 0
c gate 224 -220 -223 0
-220 -224 0
-223 -224 0
220 223 224 0
c gate 225 25 89 0
25 -225 0
89 -225 0
-25 -89 225 0
c gate 226 26 90 0
26 -226 0
90 -226 0
-26 -90 226 0
c gate 227 -225 -226 0
-225 -227 0
-226 -227 0
225 226 227 0
c gate 228 -26 -90 0
-26 -228 0
-90 -228 0
26 90 228 0
c gate 229 -227 -228 0
-227 -229 0
-228 -229 0
227 228 229 0
c gate 230 -224 229 0
-224 -230 0
229 -230 0
224 -229 230 0
c gate 231 222 -230 0
222 -231 0
-230 -231 0
-222 230 231 0
c gate 232 -217 -231 0
-217 -232 0
-231 -232 0
217 231 232 0
c gate 233 216 -232 0
216 -233 0
-232 -233 0
-216 232 233 0
c gate 234 213 -233 0
213 -234 0
-233 -234 0
-213 233 234 0
c gate 235 210 -234 0
210 -235 0
-234 -235 0
-210 234 235 0
c gate 236 -207 -235 0
-207 -236 0
-235 -236 0
207 235 236 0
c gate 237 210 227 0
210 -237 0
227 -237 0
-210 -227 237 0
c gate 238 213 216 0
213 -238 0
216 -238 0
-213 -216 238 0
c gate 239 237 238 0
237 -239 0
238 -239 0
-237 -238 239 0
c gate 240 -217 -228 0
-217 -240 0
-228 -240 0
217 228 240 0
c gate 241 -25 -89 0
-25 -241 0
-89 -241 0
25 89 241 0
c gate 242 -207 -241 0
-207 -242 0
-241 -242 0
207 241 242 0
c gate 243 240 242 0
240 -243 0
242 -243 0
-240 -242 243 0
c gate 244 -224 243 0
-224 -244 0
243 -244 0
224 -243 244 0
c gate 245 239 244 0
239 -245 0
244 -245 0
-239 -244 245 0
c gate 246 222 245 0
222 -246 0
245 -246 0
-222 -245 246 0
c gate 247 2 66 0
2 -247 0
66 -247 0
-2 -66 247 0
c gate 248 1 65 0
1 -248 0
65 -248 0
-1 -65 248 0
c gate 249 -247 -248 0
-247 -249 0
-248 -249 0
247 248 249 0
c gate 250 -3 -67 0
-3 -250 0
-67 -250 0
3 67 250 0
c gate 251 -2 -66 0
-2 -251 0
-66 -251 0
2 66 251 0
c gate 252 -250 -251 0
-250 -252 0
-251 -252 0
250 251 252 0
c gate 253 -249 252 0
-249 -253 0
252 -253 0
249 -252 253 0
c gate 254 4 68 0
4 -254 0
68 -254 0
-4 -68 254 0
c gate 255 3 67 0
3 -255 0
67 -255 0
-3 -67 255 0
c gate 256 -254 -255 0
-254 -256 0
-255 -256 0
254 255 256 0
c gate 257 -253 256 0
-253 -257 0
256 -257 0
253 -256 257 0
c gate 258 -4 -68 0
-4 -258 0
-68 -258 0
4 68 258 0
c gate 259 -5 -69 0
-5 -259 0
-69 -259 0
5 69 259 0
c gate 260 -258 -259 0
-258 -260 0
-259 -260 0
258 259 260 0
c gate 261 -257 260 0
-257 -261 0
260 -261 0
257 -260 261 0
c gate 262 6 70 0
6 -262 0
70 -262 0
-6 -70 262 0
c gate 263 5 69 0
5 -263 0
69 -263 0
-5 -69 263 0
c gate 264 -262 -263 0
-262 -264 0
-263 -264 0
262 263 264 0
c gate 265 -261 264 0
-261 -265 0
264 -265 0
261 -264 265 0
c gate 266 -7 -71 0
-7 -266 0
-71 -266 0
7 71 266 0
c gate 267 -6 -70 0
-6 -267 0
-70 -267 0
6 70 267 0
c gate 268 -266 -267 0
-266 -268 0
-267 -268 0
266 267 268 0
c gate 269 -265 268 0
-265 -269 0
268 -269 0
265 -268 269 0
c gate 270 8 72 0
8 -270 0
72 -270 0
-8 -72 270 0
c gate 271 7 71 0
7 -271 0
71 -271 0
-7 -71 271 0
c gate 272 -270 -271 0
-270 -272 0
-271 -272 0
270 271 272 0
c gate 273 -269 272 0
-269 -273 0
272 -273 0
269 -272 273 0
c gate 274 -9 -73 0
-9 -274 0
-73 -274 0
9 73 274 0
c gate 275 -8 -72 0
-8 -275 0
-72 -275 0
8 72 275 0
c gate 276 -274 -275 0
-274 -276 0
-275 -276 0
274 275 276 0
c gate 277 -273 276 0
-273 -277 0
276 -277 0
273 -276 277 0
c gate 278 10 74 0
10 -278 0
74 -278 0
-10 -74 278 0
c gate 279 9 73 0
9 -279 0
73 -279 0
-9 -73 279 0
c gate 280 -278 -279 0
-278 -280 0
-279 -280 0
278 279 280 0
c gate 281 -277 280 0
-277 -281 0
280 -281 0
277 -280 281 0
c gate 282 -10 -74 0
-10 -282 0
-74 -282 0
10 74 282 0
c gate 283 -12 -76 0
-12 -283 0
-76 -283 0
12 76 283 0
c gate 284 -11 -75 0
-11 -284 0
-75 -284 0
11 75 284 0
c gate 285 -283 -284 0
-283 -285 0
-284 -285 0
283 284 285 0
c gate 286 -282 285 0
-282 -286 0
285 -286 0
282 -285 286 0
c gate 287 -281 286 0
-281 -287 0
286 -287 0
281 -286 287 0
c gate 288 12 76 0
12 -288 0
76 -288 0
-12 -76 288 0
c gate 289 11 75 0
11 -289 0
75 -289 0
-11 -75 289 0
c gate 290 -283 289 0
-283 -290 0
289 -290 0
283 -289 290 0
c gate 291 -288 -290 0
-288 -291 0
-290 -291 0
288 290 291 0
c gate 292 -287 291 0
-287 -292 0
291 -292 0
287 -291 292 0
c gate 293 -14 -78 0
-14 -293 0
-78 -293 0
14 78 293 0
c gate 294 -15 -79 0
-15 -294 0
-79 -294 0
15 79 294 0
c gate 295 -293 -294 0
-293 -295 0
-294 -295 0
293 294 295 0
c gate 296 14 78 0
14 -296 0
78 -296 0
-14 -78 296 0
c gate 297 13 77 0
13 -297 0
77 -297 0
-13 -77 297 0
c gate 298 -296 -297 0
-296 -298 0
-297 -298 0
296 297 298 0
c gate 299 -13 -77 0
-13 -299 0
-77 -299 0
13 77 299 0
c gate 300 298 -299 0
298 -300 0
-299 -300 0
-298 299 300 0
c gate 301 295 300 0
295 -301 0
300 -301 0
-295 -300 301 0
c gate 302 -292 301 0
-292 -302 0
301 -302 0
292 -301 302 0
c gate 303 295 -298 0
295 -303 0
-298 -303 0
-295 298 303 0
c gate 304 15 79 0
15 -304 0
79 -304 0
-15 -79 304 0
c gate 305 16 80 0
16 -305 0
80 -305 0
-16 -80 305 0
c gate 306 -304 -305 0
-304 -306 0
-305 -306 0
304 305 306 0
c gate 307 -303 306 0
-303 -307 0
306 -307 0
303 -306 307 0
c gate 308 -302 307 0
-302 -308 0
307 -308 0
302 -307 308 0
c gate 309 -20 -84 0
-20 -309 0
-84 -309 0
20 84 309 0
c gate 310 19 -309 0
19 -310 0
-309 -310 0
-19 309 310 0
c gate 311 83 -309 0
83 -311 0
-309 -311 0
-83 309 311 0
c gate 312 -310 -311 0
-310 -312 0
-311 -312 0
310 311 312 0
c gate 313 -17 -81 0
-17 -313 0
-81 -313 0
17 81 313 0
c gate 314 -16 -80 0
-16 -314 0
-80 -314 0
16 80 314 0
c gate 315 -21 -85 0
-21 -315 0
-85 -315 0
21 85 315 0
c gate 316 -314 -315 0
-314 -316 0
-315 -316 0
314 315 316 0
c gate 317 -313 316 0
-313 -317 0
316 -317 0
313 -316 317 0
c gate 318 22 86 0
22 -318 0
86 -318 0
-22 -86 318 0
c gate 319 21 85 0
21 -319 0
85 -319 0
-21 -85 319 0
c gate 320 -318 -319 0
-318 -320 0
-319 -320 0
318 319 320 0
c gate 321 -24 -88 0
-24 -321 0
-88 -321 0
24 88 321 0
c gate 322 -18 -82 0
-18 -322 0
-82 -322 0
18 82 322 0
c gate 323 -321 -322 0
-321 -323 0
-322 -323 0
321 322 323 0
c gate 324 320 323 0
320 -324 0
323 -324 0
-320 -323 324 0
c gate 325 317 324 0
317 -325 0
324 -325 0
-317 -324 325 0
c gate 326 -312 325 0
-312 -326 0
325 -326 0
312 -325 326 0
c gate 327 20 84 0
20 -327 0
84 -327 0
-20 -84 327 0
c gate 328 83 310 0
83 -328 0
310 -328 0
-83 -310 328 0
c gate 329 -327 -328 0
-327 -329 0
-328 -329 0
327 328 329 0
c gate 330 17 81 0
17 -330 0
81 -330 0
-17 -81 330 0
c gate 331 18 82 0
18 -331 0
82 -331 0
-18 -82 331 0
c gate 332 -330 -331 0
-330 -332 0
-331 -332 0
330 331 332 0
c gate 333 -23 -87 0
-23 -333 0
-87 -333 0
23 87 333 0
c gate 334 -22 -86 0
-22 -334 0
-86 -334 0
22 86 334 0
c gate 335 -333 -334 0
-333 -335 0
-334 -335 0
333 334 335 0
c gate 336 24 88 0
24 -336 0
88 -336 0
-24 -88 336 0
c gate 337 23 87 0
23 -337 0
87 -337 0
-23 -87 337 0
c gate 338 -336 -337 0
-336 -338 0
-337 -338 0
336 337 338 0
c gate 339 335 338 0
335 -339 0
338 -339 0
-335 -338 339 0
c gate 340 332 339 0
332 -340 0
339 -340 0
-332 -339 340 0
c gate 341 329 340 0
329 -341 0
340 -341 0
-329 -340 341 0
c gate 342 326 341 0
326 -342 0
341 -342 0
-326 -341 342 0
c gate 343 -308 342 0
-308 -343 0
342 -343 0
308 -342 343 0
c gate 344 -322 -332 0
-322 -344 0
-332 -344 0
322 332 344 0
c gate 345 -312 344 0
-312 -345 0
344 -345 0
312 -344 345 0
c gate 346 329 -345 0
329 -346 0
-345 -346 0
-329 345 346 0
c gate 347 -315 -346 0
-315 -347 0
-346 -347 0
315 346 347 0
c gate 348 320 -347 0
320 -348 0
-347 -348 0
-320 347 348 0
c gate 349 335 -348 0
335 -349 0
-348 -349 0
-335 348 349 0
c gate 350 338 -349 0
338 -350 0
-349 -350 0
-338 349 350 0
c gate 351 -321 -350 0
-321 -351 0
-350 -351 0
321 350 351 0
c gate 352 -343 -351 0
-343 -352 0
-351 -352 0
343 351 352 0
c gate 353 246 -352 0
246 -353 0
-352 -353 0
-246 352 353 0
c gate 354 -236 -353 0
-236 -354 0
-353 -354 0
236 353 354 0
c gate 355 206 -354 0
206 -355 0
-354 -355 0
-206 354 355 0
c gate 356 201 -355 0
201 -356 0
-355 -356 0
-201 355 356 0
c gate 357 48 112 0
48 -357 0
112 -357 0
-48 -112 357 0
c gate 358 -48 -112 0
-48 -358 0
-112 -358 0
48 112 358 0
c gate 359 47 111 0
47 -359 0
111 -359 0
-47 -111 359 0
c gate 360 -358 359 0
-358 -360 0
359 -360 0
358 -359 360 0
c gate 361 -357 -360 0
-357 -361 0
-360 -361 0
357 360 361 0
c gate 362 -46 -110 0
-46 -362 0
-110 -362 0
46 110 362 0
c gate 363 -47 -111 0
-47 -363 0
-111 -363 0
47 111 363 0
c gate 364 -358 -363 0
-358 -364 0
-363 -364 0
358 363 364 0
c gate 365 -362 364 0
-362 -365 0
364 -365 0
362 -364 365 0
c gate 366 361 365 0
361 -366 0
365 -366 0
-361 -365 366 0
c gate 367 -45 -109 0
-45 -367 0
-109 -367 0
45 109 367 0
c gate 368 46 110 0
46 -368 0
110 -368 0
-46 -110 368 0
c gate 369 45 109 0
45 -369 0
109 -369 0
-45 -109 369 0
c gate 370 -368 -369 0
-368 -370 0
-369 -370 0
368 369 370 0
c gate 371 -367 370 0
-367 -371 0
370 -371 0
367 -370 371 0
c gate 372 366 371 0
366 -372 0
371 -372 0
-366 -371 372 0
c gate 373 44 108 0
44 -373 0
108 -373 0
-44 -108 373 0
c gate 374 -44 -108 0
-44 -374 0
-108 -374 0
44 108 374 0
c gate 375 43 107 0
43 -375 0
107 -375 0
-43 -107 375 0
c gate 376 -374 375 0
-374 -376 0
375 -376 0
374 -375 376 0
c gate 377 -373 -376 0
-373 -377 0
-376 -377 0
373 376 377 0
c gate 378 -42 -106 0
-42 -378 0
-106 -378 0
42 106 378 0
c gate 379 -43 -107 0
-43 -379 0
-107 -379 0
43 107 379 0
c gate 380 -374 -379 0
-374 -380 0
-379 -380 0
374 379 380 0
c gate 381 -378 380 0
-378 -381 0
380 -381 0
378 -380 381 0
c gate 382 377 381 0
377 -382 0
381 -382 0
-377 -381 382 0
c gate 383 -41 -105 0
-41 -383 0
-105 -383 0
41 105 383 0
c gate 384 42 106 0
42 -384 0
106 -384 0
-42 -106 384 0
c gate 385 41 105 0
41 -385 0
105 -385 0
-41 -105 385 0
c gate 386 -384 -385 0
-384 -386 0
-385 -386 0
384 385 386 0
c gate 387 -383 386 0
-383 -387 0
386 -387 0
383 -386 387 0
c gate 388 382 387 0
382 -388 0
387 -388 0
-382 -387 388 0
c gate 389 372 388 0
372 -389 0
388 -389 0
-372 -388 389 0
c gate 390 -356 389 0
-356 -390 0
389 -390 0
356 -389 390 0
c gate 391 382 -386 0
382 -391 0
-386 -391 0
-382 386 391 0
c gate 392 377 -391 0
377 -392 0
-391 -392 0
-377 391 392 0
c gate 393 372 -392 0
372 -393 0
-392 -393 0
-372 392 393 0
c gate 394 366 -370 0
366 -394 0
-370 -394 0
-366 370 394 0
c gate 395 361 -394 0
361 -395 0
-394 -395 0
-361 394 395 0
c gate 396 -393 395 0
-393 -396 0
395 -396 0
393 -395 396 0
c gate 397 -390 396 0
-390 -397 0
396 -397 0
390 -396 397 0
c gate 398 167 -397 0
167 -398 0
-397 -398 0
-167 397 398 0
c gate 399 -158 -398 0
-158 -399 0
-398 -399 0
158 398 399 0
c gate 400 60 124 0
60 -400 0
124 -400 0
-60 -124 400 0
c gate 401 -60 -124 0
-60 -401 0
-124 -401 0
60 124 401 0
c gate 402 59 123 0
59 -402 0
123 -402 0
-59 -123 402 0
c gate 403 -401 402 0
-401 -403 0
402 -403 0
401 -402 403 0
c gate 404 -400 -403 0
-400 -404 0
-403 -404 0
400 403 404 0
c gate 405 -58 -122 0
-58 -405 0
-122 -405 0
58 122 405 0
c gate 406 -59 -123 0
-59 -406 0
-123 -406 0
59 123 406 0
c gate 407 -401 -406 0
-401 -407 0
-406 -407 0
401 406 407 0
c gate 408 -405 407 0
-405 -408 0
407 -408 0
405 -407 408 0
c gate 409 404 408 0
404 -409 0
408 -409 0
-404 -408 409 0
c gate 410 58 122 0
58 -410 0
122 -410 0
-58 -122 410 0
c gate 411 57 121 0
57 -411 0
121 -411 0
-57 -121 411 0
c gate 412 -410 -411 0
-410 -412 0
-411 -412 0
410 411 412 0
c gate 413 -57 -121 0
-57 -413 0
-121 -413 0
57 121 413 0
c gate 414 412 -413 0
412 -414 0
-413 -414 0
-412 413 414 0
c gate 415 409 414 0
409 -415 0
414 -415 0
-409 -414 415 0
c gate 416 -62 -126 0
-62 -416 0
-126 -416 0
62 126 416 0
c gate 417 -63 -127 0
-63 -417 0
-127 -417 0
63 127 417 0
c gate 418 -416 -417 0
-416 -418 0
-417 -418 0
416 417 418 0
c gate 419 63 127 0
63 -419 0
127 -419 0
-63 -127 419 0
c gate 420 64 128 0
64 -420 0
128 -420 0
-64 -128 420 0
c gate 421 -419 -420 0
-419 -421 0
-420 -421 0
419 420 421 0
c gate 422 -64 -128 0
-64 -422 0
-128 -422 0
64 128 422 0
c gate 423 421 -422 0
421 -423 0
-422 -423 0
-421 422 423 0
c gate 424 418 423 0
418 -424 0
423 -424 0
-418 -423 424 0
c gate 425 61 125 0
61 -425 0
125 -425 0
-61 -125 425 0
c gate 426 62 126 0
62 -426 0
126 -426 0
-62 -126 426 0
c gate 427 -425 -426 0
-425 -427 0
-426 -427 0
425 426 427 0
c gate 428 -61 -125 0
-61 -428 0
-125 -428 0
61 125 428 0
c gate 429 427 -428 0
427 -429 0
-428 -429 0
-427 428 429 0
c gate 430 424 429 0
424 -430 0
429 -430 0
-424 -429 430 0
c gate 431 415 430 0
415 -431 0
430 -431 0
-415 -430 431 0
c gate 432 -399 431 0
-399 -432 0
431 -432 0
399 -431 432 0
c gate 433 409 -412 0
409 -433 0
-412 -433 0
-409 412 433 0
c gate 434 404 -433 0
404 -434 0
-433 -434 0
-404 433 434 0
c gate 435 180 389 0
180 -435 0
389 -435 0
-180 -389 435 0
c gate 436 396 -435 0
396 -436 0
-435 -436 0
-396 435 436 0
c gate 437 167 -436 0
167 -437 0
-436 -437 0
-167 436 437 0
c gate 438 -158 -437 0
-158 -438 0
-437 -438 0
158 437 438 0
c gate 439 415 -438 0
415 -439 0
-438 -439 0
-415 438 439 0
c gate 440 434 -439 0
434 -440 0
-439 -440 0
-434 439 440 0
c gate 441 -428 -440 0
-428 -441 0
-440 -441 0
428 440 441 0
c gate 442 427 -441 0
427 -442 0
-441 -442 0
-427 441 442 0
c gate 443 424 -442 0
424 -443 0
-442 -443 0
-424 442 443 0
c gate 444 -419 -443 0
-419 -444 0
-443 -444 0
419 443 444 0
c gate 445 430 -434 0
430 -445 0
-434 -445 0
-430 434 445 0
c gate 446 418 -427 0
418 -446 0
-427 -446 0
-418 427 446 0
c gate 447 421 -446 0
421 -447 0
-446 -447 0
-421 446 447 0
c gate 448 -422 -447 0
-422 -448 0
-447 -448 0
422 447 448 0
c gate 449 -445 -448 0
-445 -449 0
-448 -449 0
445 448 449 0
c gate 450 -444 449 0
-444 -450 0
449 -450 0
444 -449 450 0
c gate 451 432 450 0
432 -451 0
450 -451 0
-432 -450 451 0
c PO
451 0
